SCIP version 0.82 [precision: 8 byte] [memory: block] [mode: optimized] [LP solver: SOPLEX 1.3.0]
Copyright (c) 2002-2006 Konrad-Zuse-Zentrum fuer Informationstechnik Berlin (ZIB)

reading parameter file <scip.set>

read problem </ufs/psxjm3/instances/udine4.ctt.c.zpl>
============

****************************************************
* Zuse Institute Mathematical Programming Language *
* Release 2.04  Copyright (C)2005 by Thorsten Koch *
****************************************************

original problem has 13750 variables (13750 bin, 0 int, 0 impl, 0 cont) and 4518 constraints

solve problem
=============

LP Solver <SOPLEX 1.3.0>: dual feasibility tolerance cannot be set -- tolerance of SCIP and LP solver may differ
LP Solver <SOPLEX 1.3.0>: barrier convergence tolerance cannot be set -- tolerance of SCIP and LP solver may differ
LP Solver <SOPLEX 1.3.0>: fastmip setting not available -- SCIP parameter has no effect
LP Solver <SOPLEX 1.3.0>: scaling not available -- SCIP parameter has no effect
LP Solver <SOPLEX 1.3.0>: presolving not available -- SCIP parameter has no effect
transformed problem has 13750 variables (13750 bin, 0 int, 0 impl, 0 cont) and 4518 constraints
   4518 constraints of type <linear>

presolving:
(round 1) 2990 del vars, 30 del conss, 2990 chg bounds, 0 chg sides, 0 chg coeffs, 0 upgd conss, 0 impls, 2194 clqs
(round 2) 2990 del vars, 714 del conss, 2990 chg bounds, 0 chg sides, 0 chg coeffs, 0 upgd conss, 0 impls, 2194 clqs
(round 3) 2990 del vars, 3251 del conss, 2990 chg bounds, 2586 chg sides, 0 chg coeffs, 0 upgd conss, 0 impls, 2194 clqs
(round 4) 2990 del vars, 3251 del conss, 2990 chg bounds, 2586 chg sides, 0 chg coeffs, 1155 upgd conss, 0 impls, 2194 clqs
   (2.9s) probing: 100/10760 (0.9%) - 0 fixings, 0 aggregations, 0 implications, 0 bound changes
presolving (5 rounds):
 2990 deleted vars, 3251 deleted constraints, 2990 tightened bounds, 0 added holes, 2586 changed sides, 0 changed coefficients
 0 implications, 2194 cliques
presolved problem has 10760 variables (10760 bin, 0 int, 0 impl, 0 cont) and 1267 constraints
   1155 constraints of type <setppc>
    112 constraints of type <linear>
objective value is always integral
Presolving Time: 2.72

 time | node  | left  |LP iter| mem |mdpt |frac |vars |cons |ccons|cols |rows |cuts |confs|strbr|  dualbound   | primalbound  |  gap   
  4.5s|     1 |     0 |  1685 |  37M|   0 | 158 |  10k|1267 |1267 |  10k|1267 |   0 |   0 |   0 | 0.000000e+00 |      --      |    Inf 
  5.1s|     1 |     0 |  1880 |  37M|   0 | 200 |  10k|1267 |1267 |  10k|1270 |   3 |   0 |   0 | 0.000000e+00 |      --      |    Inf 
  5.5s|     1 |     0 |  1952 |  37M|   0 | 236 |  10k|1267 |1267 |  10k|1274 |   7 |   0 |   0 | 0.000000e+00 |      --      |    Inf 
  5.7s|     1 |     0 |  1971 |  37M|   0 | 227 |  10k|1267 |1267 |  10k|1275 |   8 |   0 |   0 | 0.000000e+00 |      --      |    Inf 
  6.0s|     1 |     0 |  1982 |  37M|   0 | 222 |  10k|1267 |1267 |  10k|1278 |  11 |   0 |   0 | 0.000000e+00 |      --      |    Inf 
  6.3s|     1 |     0 |  2010 |  37M|   0 | 237 |  10k|1267 |1267 |  10k|1280 |  13 |   0 |   0 | 0.000000e+00 |      --      |    Inf 
  6.6s|     1 |     0 |  2011 |  37M|   0 | 239 |  10k|1267 |1267 |  10k|1281 |  14 |   0 |   0 | 0.000000e+00 |      --      |    Inf 
F28.2s|     1 |     2 |  3248 |  37M|   0 |   0 |  10k|1267 |1267 |  10k|1281 |  14 |   0 |  33 | 0.000000e+00 | 0.000000e+00 |   0.00%

SCIP Status        : problem is solved [optimal solution found]
Solving Time (sec) : 28.20
Solving Nodes      : 1
Primal Bound       : +0.00000000000000e+00 (1 solutions)
Dual Bound         : +0.00000000000000e+00
Gap                : 0.00 %

primal solution:
================

objective value:                                    0
Taught#1#1#26                                       1 	(obj:0)
Taught#1#2#31                                       1 	(obj:0)
Taught#1#3#49                                       1 	(obj:0)
Taught#1#4#42                                       1 	(obj:0)
Taught#1#5#13                                       1 	(obj:0)
Taught#1#6#17                                       1 	(obj:0)
Taught#1#7#12                                       1 	(obj:0)
Taught#1#8#10                                       1 	(obj:0)
Taught#1#9#8                                        1 	(obj:0)
Taught#1#10#18                                      1 	(obj:0)
Taught#2#1#53                                       1 	(obj:0)
Taught#2#2#40                                       1 	(obj:0)
Taught#2#3#25                                       1 	(obj:0)
Taught#2#4#24                                       1 	(obj:0)
Taught#2#5#31                                       1 	(obj:0)
Taught#2#6#51                                       1 	(obj:0)
Taught#2#7#7                                        1 	(obj:0)
Taught#2#8#15                                       1 	(obj:0)
Taught#2#9#10                                       1 	(obj:0)
Taught#2#10#28                                      1 	(obj:0)
Taught#3#1#28                                       1 	(obj:0)
Taught#3#2#11                                       1 	(obj:0)
Taught#3#3#34                                       1 	(obj:0)
Taught#3#4#26                                       1 	(obj:0)
Taught#3#5#37                                       1 	(obj:0)
Taught#3#6#24                                       1 	(obj:0)
Taught#3#7#21                                       1 	(obj:0)
Taught#3#8#40                                       1 	(obj:0)
Taught#3#9#7                                        1 	(obj:0)
Taught#3#10#2                                       1 	(obj:0)
Taught#4#1#22                                       1 	(obj:0)
Taught#4#2#38                                       1 	(obj:0)
Taught#4#3#4                                        1 	(obj:0)
Taught#4#4#26                                       1 	(obj:0)
Taught#4#5#13                                       1 	(obj:0)
Taught#4#6#51                                       1 	(obj:0)
Taught#4#7#11                                       1 	(obj:0)
Taught#4#8#21                                       1 	(obj:0)
Taught#4#9#1                                        1 	(obj:0)
Taught#4#10#2                                       1 	(obj:0)
Taught#5#1#11                                       1 	(obj:0)
Taught#5#2#20                                       1 	(obj:0)
Taught#5#3#24                                       1 	(obj:0)
Taught#5#4#25                                       1 	(obj:0)
Taught#5#5#42                                       1 	(obj:0)
Taught#5#6#31                                       1 	(obj:0)
Taught#5#7#32                                       1 	(obj:0)
Taught#5#8#6                                        1 	(obj:0)
Taught#5#9#38                                       1 	(obj:0)
Taught#5#10#19                                      1 	(obj:0)
Taught#6#1#49                                       1 	(obj:0)
Taught#6#2#2                                        1 	(obj:0)
Taught#6#3#41                                       1 	(obj:0)
Taught#6#4#10                                       1 	(obj:0)
Taught#6#5#18                                       1 	(obj:0)
Taught#6#6#20                                       1 	(obj:0)
Taught#6#7#43                                       1 	(obj:0)
Taught#6#8#47                                       1 	(obj:0)
Taught#6#9#46                                       1 	(obj:0)
Taught#6#10#12                                      1 	(obj:0)
Taught#7#1#11                                       1 	(obj:0)
Taught#7#2#12                                       1 	(obj:0)
Taught#7#3#53                                       1 	(obj:0)
Taught#7#4#33                                       1 	(obj:0)
Taught#7#5#40                                       1 	(obj:0)
Taught#7#6#44                                       1 	(obj:0)
Taught#7#7#5                                        1 	(obj:0)
Taught#7#8#51                                       1 	(obj:0)
Taught#7#9#16                                       1 	(obj:0)
Taught#7#10#22                                      1 	(obj:0)
Taught#8#1#37                                       1 	(obj:0)
Taught#8#2#4                                        1 	(obj:0)
Taught#8#3#22                                       1 	(obj:0)
Taught#8#4#33                                       1 	(obj:0)
Taught#8#5#19                                       1 	(obj:0)
Taught#8#6#29                                       1 	(obj:0)
Taught#8#7#14                                       1 	(obj:0)
Taught#8#8#40                                       1 	(obj:0)
Taught#8#9#32                                       1 	(obj:0)
Taught#8#10#55                                      1 	(obj:0)
Taught#9#1#34                                       1 	(obj:0)
Taught#9#2#29                                       1 	(obj:0)
Taught#9#3#30                                       1 	(obj:0)
Taught#9#4#36                                       1 	(obj:0)
Taught#9#5#50                                       1 	(obj:0)
Taught#9#6#44                                       1 	(obj:0)
Taught#9#7#1                                        1 	(obj:0)
Taught#9#8#21                                       1 	(obj:0)
Taught#9#9#13                                       1 	(obj:0)
Taught#9#10#3                                       1 	(obj:0)
Taught#10#1#43                                      1 	(obj:0)
Taught#10#2#45                                      1 	(obj:0)
Taught#10#3#19                                      1 	(obj:0)
Taught#10#4#41                                      1 	(obj:0)
Taught#10#5#20                                      1 	(obj:0)
Taught#10#6#39                                      1 	(obj:0)
Taught#10#7#50                                      1 	(obj:0)
Taught#10#8#16                                      1 	(obj:0)
Taught#10#9#23                                      1 	(obj:0)
Taught#10#10#36                                     1 	(obj:0)
Taught#11#1#47                                      1 	(obj:0)
Taught#11#2#50                                      1 	(obj:0)
Taught#11#3#45                                      1 	(obj:0)
Taught#11#4#10                                      1 	(obj:0)
Taught#11#5#54                                      1 	(obj:0)
Taught#11#6#31                                      1 	(obj:0)
Taught#11#7#15                                      1 	(obj:0)
Taught#11#8#18                                      1 	(obj:0)
Taught#11#9#5                                       1 	(obj:0)
Taught#11#10#42                                     1 	(obj:0)
Taught#12#1#22                                      1 	(obj:0)
Taught#12#2#47                                      1 	(obj:0)
Taught#12#3#39                                      1 	(obj:0)
Taught#12#4#49                                      1 	(obj:0)
Taught#12#5#4                                       1 	(obj:0)
Taught#12#6#1                                       1 	(obj:0)
Taught#12#7#11                                      1 	(obj:0)
Taught#12#8#29                                      1 	(obj:0)
Taught#12#9#37                                      1 	(obj:0)
Taught#12#10#15                                     1 	(obj:0)
Taught#13#1#43                                      1 	(obj:0)
Taught#13#2#35                                      1 	(obj:0)
Taught#13#3#29                                      1 	(obj:0)
Taught#13#4#46                                      1 	(obj:0)
Taught#13#5#18                                      1 	(obj:0)
Taught#13#6#30                                      1 	(obj:0)
Taught#13#7#32                                      1 	(obj:0)
Taught#13#8#9                                       1 	(obj:0)
Taught#13#9#16                                      1 	(obj:0)
Taught#13#10#19                                     1 	(obj:0)
Taught#14#1#13                                      1 	(obj:0)
Taught#14#2#32                                      1 	(obj:0)
Taught#14#3#48                                      1 	(obj:0)
Taught#14#4#37                                      1 	(obj:0)
Taught#14#5#8                                       1 	(obj:0)
Taught#14#6#38                                      1 	(obj:0)
Taught#14#7#3                                       1 	(obj:0)
Taught#14#8#36                                      1 	(obj:0)
Taught#14#9#9                                       1 	(obj:0)
Taught#14#10#33                                     1 	(obj:0)
Taught#15#1#32                                      1 	(obj:0)
Taught#15#2#9                                       1 	(obj:0)
Taught#15#3#27                                      1 	(obj:0)
Taught#15#4#35                                      1 	(obj:0)
Taught#15#5#52                                      1 	(obj:0)
Taught#15#6#38                                      1 	(obj:0)
Taught#15#7#42                                      1 	(obj:0)
Taught#15#8#3                                       1 	(obj:0)
Taught#15#9#13                                      1 	(obj:0)
Taught#15#10#21                                     1 	(obj:0)
Taught#16#1#46                                      1 	(obj:0)
Taught#16#2#44                                      1 	(obj:0)
Taught#16#3#30                                      1 	(obj:0)
Taught#16#4#33                                      1 	(obj:0)
Taught#16#5#17                                      1 	(obj:0)
Taught#16#6#48                                      1 	(obj:0)
Taught#16#7#50                                      1 	(obj:0)
Taught#16#8#15                                      1 	(obj:0)
Taught#16#9#9                                       1 	(obj:0)
Taught#16#10#4                                      1 	(obj:0)
Taught#17#1#49                                      1 	(obj:0)
Taught#17#2#15                                      1 	(obj:0)
Taught#17#3#21                                      1 	(obj:0)
Taught#17#4#37                                      1 	(obj:0)
Taught#17#5#2                                       1 	(obj:0)
Taught#17#6#3                                       1 	(obj:0)
Taught#17#7#48                                      1 	(obj:0)
Taught#17#8#10                                      1 	(obj:0)
Taught#17#9#44                                      1 	(obj:0)
Taught#17#10#40                                     1 	(obj:0)
Taught#18#1#22                                      1 	(obj:0)
Taught#18#2#45                                      1 	(obj:0)
Taught#18#3#41                                      1 	(obj:0)
Taught#18#4#4                                       1 	(obj:0)
Taught#18#5#51                                      1 	(obj:0)
Taught#18#6#16                                      1 	(obj:0)
Taught#18#7#35                                      1 	(obj:0)
Taught#18#8#34                                      1 	(obj:0)
Taught#18#9#8                                       1 	(obj:0)
Taught#18#10#30                                     1 	(obj:0)
Taught#19#1#39                                      1 	(obj:0)
Taught#19#2#46                                      1 	(obj:0)
Taught#19#3#34                                      1 	(obj:0)
Taught#19#4#30                                      1 	(obj:0)
Taught#19#5#41                                      1 	(obj:0)
Taught#19#6#16                                      1 	(obj:0)
Taught#19#7#45                                      1 	(obj:0)
Taught#19#8#14                                      1 	(obj:0)
Taught#19#9#17                                      1 	(obj:0)
Taught#19#10#52                                     1 	(obj:0)
Taught#20#1#48                                      1 	(obj:0)
Taught#20#2#31                                      1 	(obj:0)
Taught#20#3#17                                      1 	(obj:0)
Taught#20#4#43                                      1 	(obj:0)
Taught#20#5#54                                      1 	(obj:0)
Taught#20#6#19                                      1 	(obj:0)
Taught#20#7#1                                       1 	(obj:0)
Taught#20#8#39                                      1 	(obj:0)
Taught#20#9#35                                      1 	(obj:0)
Taught#20#10#3                                      1 	(obj:0)
Taught#21#1#43                                      1 	(obj:0)
Taught#21#2#14                                      1 	(obj:0)
Taught#21#3#28                                      1 	(obj:0)
Taught#21#4#25                                      1 	(obj:0)
Taught#21#5#47                                      1 	(obj:0)
Taught#21#6#41                                      1 	(obj:0)
Taught#21#7#12                                      1 	(obj:0)
Taught#21#8#33                                      1 	(obj:0)
Taught#21#9#18                                      1 	(obj:0)
Taught#21#10#50                                     1 	(obj:0)
Taught#22#1#35                                      1 	(obj:0)
Taught#22#2#34                                      1 	(obj:0)
Taught#22#3#2                                       1 	(obj:0)
Taught#22#4#25                                      1 	(obj:0)
Taught#22#5#8                                       1 	(obj:0)
Taught#22#6#20                                      1 	(obj:0)
Taught#22#7#47                                      1 	(obj:0)
Taught#22#8#12                                      1 	(obj:0)
Taught#22#9#52                                      1 	(obj:0)
Taught#22#10#5                                      1 	(obj:0)
Taught#23#1#14                                      1 	(obj:0)
Taught#23#2#24                                      1 	(obj:0)
Taught#23#3#45                                      1 	(obj:0)
Taught#23#4#53                                      1 	(obj:0)
Taught#23#5#29                                      1 	(obj:0)
Taught#23#6#25                                      1 	(obj:0)
Taught#23#7#36                                      1 	(obj:0)
Taught#23#8#42                                      1 	(obj:0)
Taught#23#9#46                                      1 	(obj:0)
Taught#23#10#7                                      1 	(obj:0)
Taught#24#1#26                                      1 	(obj:0)
Taught#24#2#38                                      1 	(obj:0)
Taught#24#3#49                                      1 	(obj:0)
Taught#24#4#24                                      1 	(obj:0)
Taught#24#5#28                                      1 	(obj:0)
Taught#24#6#6                                       1 	(obj:0)
Taught#24#7#17                                      1 	(obj:0)
Taught#24#8#1                                       1 	(obj:0)
Taught#24#9#14                                      1 	(obj:0)
Taught#24#10#39                                     1 	(obj:0)
Taught#25#1#6                                       1 	(obj:0)
Taught#25#2#55                                      1 	(obj:0)
Taught#25#3#9                                       1 	(obj:0)
Taught#25#4#8                                       1 	(obj:0)
Taught#25#5#51                                      1 	(obj:0)
Taught#25#6#36                                      1 	(obj:0)
Taught#25#7#28                                      1 	(obj:0)
Taught#25#8#48                                      1 	(obj:0)
Taught#25#9#44                                      1 	(obj:0)
Taught#25#10#20                                     1 	(obj:0)

Statistics
==========

SCIP Status        : problem is solved [optimal solution found]
Solving Time       :      28.20
Original Problem   :
  Problem name     : udine4.ctt.c.zpl
  Variables        : 13750 (13750 binary, 0 integer, 0 implicit integer, 0 continuous)
  Constraints      : 4518 initial, 4518 maximal
Presolved Problem  :
  Problem name     : t_udine4.ctt.c.zpl
  Variables        : 10760 (10760 binary, 0 integer, 0 implicit integer, 0 continuous)
  Constraints      : 1267 initial, 1267 maximal
Presolvers         :       Time  FixedVars   AggrVars   ChgTypes  ChgBounds   AddHoles    DelCons   ChgSides   ChgCoefs
  trivial          :       0.03          0          0          0          0          0          0          0          0
  inttobinary      :       0.00          0          0          0          0          0          0          0          0
  dualfix          :       0.00          0          0          0          0          0          0          0          0
  implics          :       0.02          0          0          0          0          0          0          0          0
  probing          :       1.88          0          0          0          0          0          0          0          0
  setppc           :       0.03          0          0          0          0          0          0          0          0
  linear           :       0.59       2990          0          0       2990          0       3251       2586          0
  root node        :          -          0          -          -          0          -          -          -          -
Constraints        :     Number  #Separate #Propagate    #EnfoLP    #EnfoPS    Cutoffs    DomReds       Cuts      Conss   Children
  integral         :          0          0          0          1          0          0          0          0          0          2
  setppc           :       1155          6        201          0          0          0          0          0          0          0
  linear           :        112          6        201          0          0          0          0          0          0          0
Constraint Timings :  TotalTime   Separate  Propagate     EnfoLP     EnfoPS
  integral         :      19.44       0.00       0.00      19.44       0.00
  setppc           :       0.04       0.00       0.04       0.00       0.00
  linear           :       1.41       0.00       1.41       0.00       0.00
Propagators        :       Time      Calls    Cutoffs    DomReds
  rootredcost      :       0.00          0          0          0
  pseudoobj        :       0.00          1          0          0
Conflict Analysis  :       Time      Calls    Success  Conflicts   Literals    Reconvs ReconvLits   LP Iters
  propagation      :       0.00          0          0          0        0.0          0        0.0          -
  infeasible LP    :       0.00          0          0          0        0.0          0        0.0          0
  bound exceed. LP :       0.00          0          0          0        0.0          0        0.0          0
  strong branching :       0.00          0          0          0        0.0          0        0.0          0
  pseudo solution  :       0.00          0          0          0        0.0          0        0.0          -
  applied globally :          -          -          -          0        0.0          -          -          -
  applied locally  :          -          -          -          0        0.0          -          -          -
Separators         :       Time      Calls    Cutoffs    DomReds       Cuts      Conss
  cut pool         :       0.00          5          -          -          0          -    (maximal pool size: 14)
  redcost          :       0.00          6          0          0          0          0
  impliedbounds    :       0.02          6          0          0          0          0
  intobj           :       0.00          0          0          0          0          0
  gomory           :       0.05          6          0          0          0          0
  strongcg         :       0.06          6          0          0          0          0
  cmir             :       0.94          6          0          0          0          0
  clique           :       0.08          6          0          0         14          0
Pricers            :       Time      Calls       Vars
  problem variables:       0.00          0          0
Branching Rules    :       Time      Calls    Cutoffs    DomReds       Cuts      Conss   Children
  relpscost        :      19.44          1          0          0          0          0          2
  pscost           :       0.00          0          0          0          0          0          0
  inference        :       0.00          0          0          0          0          0          0
  mostinf          :       0.00          0          0          0          0          0          0
  leastinf         :       0.00          0          0          0          0          0          0
  fullstrong       :       0.00          0          0          0          0          0          0
  allfullstrong    :       0.00          0          0          0          0          0          0
Primal Heuristics  :       Time      Calls      Found
  LP solutions     :       0.00          -          0
  pseudo solutions :       0.00          -          0
  octane           :       0.00          0          0
  simplerounding   :       0.01          7          0
  rounding         :       0.08          7          0
  shifting         :       0.28          7          0
  fixandinfer      :       0.00          0          0
  feaspump         :       2.19          1          1
  coefdiving       :       0.00          0          0
  pscostdiving     :       0.00          0          0
  fracdiving       :       0.00          0          0
  intdiving        :       0.00          0          0
  objpscostdiving  :       0.00          0          0
  rootsoldiving    :       0.00          0          0
  linesearchdiving :       0.00          0          0
  guideddiving     :       0.00          0          0
  rins             :       0.00          0          0
  localbranching   :       0.00          0          0
  crossover        :       0.00          0          0
LP                 :       Time      Calls Iterations  Iter/call   Iter/sec
  primal LP        :       0.00          0          0       0.00          -
  dual LP          :       1.99          7       2011     287.29    1010.55
  barrier LP       :       0.00          0          0       0.00          -
  diving/probing LP:       2.14          1       1237    1237.00     578.04
  strong branching :      19.44         33      12005     363.79     617.54
    (at root node) :          -         33      12005     363.79          -
  conflict analysis:       0.00          0          0       0.00          -
B&B Tree           :
  number of runs   :          1
  nodes            :          1
  nodes (total)    :          1
  nodes left       :          0
  max depth        :          0
  max depth (total):          0
  backtracks       :          0 (0.0%)
  delayed cutoffs  :          0
  repropagations   :          0 (0 domain reductions, 0 cutoffs)
  avg switch length:       2.00
  switching time   :       0.00
Solution           :
  Solutions found  :          1 (1 improvements)
  Primal Bound     : +0.00000000000000e+00   (in run 1, after 1 nodes, 28.17 seconds, depth 0, found by <feaspump>)
  Dual Bound       : +0.00000000000000e+00
  Gap              :       0.00 %
  Root Dual Bound  : +0.00000000000000e+00
